n_res = 4;
rc = [ 21, 24, 17, 15 ];
n_tasks = 30;
d = [ 10, 5, 9, 2, 3, 4, 10, 5, 5, 6, 3, 3, 10, 10, 9, 8, 9, 1, 7, 4, 1, 4, 5, 7, 7, 3, 6, 9, 1, 10 ];
rr = [| 3, 2, 7, 3, 0, 7, 0, 0, 0, 10, 0, 8, 9, 0, 0, 0, 0, 3, 0, 0, 6, 2, 3, 5, 0, 0, 0, 1, 0, 0
      | 1, 2, 7, 0, 6, 5, 7, 8, 8, 2, 0, 0, 6, 9, 2, 3, 0, 5, 2, 0, 0, 0, 2, 0, 0, 0, 0, 9, 3, 0
      | 0, 0, 0, 5, 0, 3, 0, 0, 2, 0, 2, 0, 0, 10, 4, 0, 6, 0, 9, 2, 0, 0, 2, 9, 10, 0, 0, 0, 0, 1
      | 0, 0, 4, 10, 0, 0, 0, 0, 2, 7, 0, 3, 0, 7, 0, 0, 0, 0, 5, 2, 3, 0, 4, 0, 6, 2, 2, 5, 5, 2 |];
suc = [ { 2 }, 
        { 1 }, 
        { 4 }, 
        { 3 }, 
        { 6 }, 
        { 5 }, 
        { 8 }, 
        { 7 }, 
        { 10 }, 
        { 9 }, 
        { 12 }, 
        { 11 }, 
        { 14 }, 
        { 13 }, 
        { 16 }, 
        { 15 }, 
        { 18 }, 
        { 17 }, 
        { 20 }, 
        { 19 }, 
        { 22 }, 
        { 21 }, 
        { 24 }, 
        { 23 }, 
        { 26 }, 
        { 25 }, 
        { 28 }, 
        { 27 }, 
        { 30 }, 
        { 29 }]; 
